Zr  O  H 
 1.0000000000000000
     9.9866648077852407    0.0000000000000000    0.0000000000000000
     0.0000000000000000   10.4780005206540476    0.0000000000000000
     0.0000000000000000    0.0000000000000000   10.0818884199899568
 Zr  O   H  
  32  64   1
Cartesian
  8.8431331993846758  0.1818417618885140  1.2696866515166103
  8.8442449057142234  0.1780461328189038  6.3271163485870172
  8.8318528442847963  5.4335271415134434  1.2466626705188386
  8.8295001768916830  5.4167234627109497  6.3370753839822047
  0.9920130214446384  5.0145764576721739  3.7214625769609513
  1.1517210195210439  5.0598329402624147  8.7916188406331770
  1.1447344002606417 10.2894077196913791  3.7539491678680368
  1.1513001888251764 10.3034686704338494  8.7940727847447810
  6.1735224698510907  5.0721662089601711  3.8125971336716389
  6.1670166110748283  5.0594423191364175  8.8692825541503115
  6.1550944695136547 10.3084072166217151  3.8129775571680189
  6.1558290789884440 10.3021507344181131  8.8466544484018392
  3.8419544127420382  0.1854152212016937  1.2300329669828756
  3.8473225520236198  0.1842882357718052  6.2963977425466195
  3.8319898135486250  5.4271564787343376  1.2100282901090553
  3.8842913505786889  5.4132713787460069  6.3745593961963705
  1.1579830981855832  2.7970629989078644  1.2322194846029910
  1.1615922400174892  2.7994636612407784  6.2712167791728266
  1.1556943939080175  8.0403780163339764  1.2323200113527155
  1.1588898774862206  8.0359088588438770  6.2823411508305584
  8.8141204190080256  2.4087071309188861  3.8007767257476899
  8.8442429435062806  2.4427599509855509  8.8396058948116547
  8.8337413436520311  7.6897444486544195  3.8018655582873548
  8.8466670134876573  7.6917834365340001  8.8350489783820798
  3.8337879258448591  2.4064704707193116  3.7702645251688396
  3.8477308262057228  2.4366729676497183  8.8158960777576549
  3.8819200949670347  7.7548115105084019  3.7273358482748131
  3.8496567950810014  7.6971041296483094  8.8044287816418354
  6.1405699639765201  2.7966126444293784  1.2996044736340477
  6.1420249957965662  2.8008228122185419  6.3274604085803556
  6.1528012426561309  8.0379425156799797  1.2767461369246313
  6.1478675859356642  8.0402097220966464  6.3217507662342411
  7.9066130947585460  1.9958015507335982  0.6962716386573247
  7.9004074834732823  1.9784426813572802  5.7272130884408128
  7.9182377821630201  7.2333009559194705  0.6801982463754280
  7.9146592856557003  7.2195684562143851  5.7257580865186499
  2.0564081419396407  3.2780403337471236  4.3229088801776649
  2.0767909654670160  3.2540927897926464  9.3985763861581830
  2.0801222564604740  8.4328836839758239  4.3367258648361799
  2.0751541266343105  8.4908538641809788  9.3844731292513988
  7.0331078072445230  3.2433654375289143  3.2351934819650712
  7.0772462692135960  3.2551267372908597  8.2487523598469501
  7.0556494664145140  8.4770744101366837  3.2211150576319776
  7.0730379679373803  8.4916828970529448  8.2431188755544689
  2.9244569592012297  1.9891131024571171  1.8330553699050873
  2.9289306203680554  1.9962225662104693  6.8717949497162527
  2.9330473424786878  7.2400194924363621  1.8126987963215739
  2.9368535133950924  7.2204325942359935  6.8473845295095588
  2.0508660237266820  4.6203944724069990  1.8327364702881317
  2.0828421253063643  4.6101639818098770  6.8605993013191569
  2.0795635539824850  9.8447480167864647  1.8386069781376659
  2.0779672166880632  9.8414961778623269  6.8679217423299930
  7.9180024818223815  0.6165139282427575  3.2040627603018375
  7.9273652058856046  0.6304502446539735  8.2554625387613907
  7.9359705772803109  5.8599574511341457  3.2110144085858852
  7.9349993471020115  5.8636017825265112  8.2686003417279892
  2.9125750439409601  0.6169673936166115  4.3619696658965301
  2.9252787977008015  0.6303998778131925  9.3915458063058104
  2.9334262228495063  5.7887595940963799  4.2705149346286886
  2.9396877973255395  5.8646092090341266  9.3547519443221159
  7.0531541610752608  4.6146888782045501  0.7145355617820282
  7.0407656181655520  4.6239590775331196  5.7454717539953295
  7.0705590196717489  9.8456257516861889  0.6911720223932375
  7.0765601444498305  9.8416627933464742  5.7276843876897949
  9.7059522938216709  3.8525644027596746  2.4899922069857769
  9.7618332121320002  3.8682548885070571  7.5391265290255065
  9.7446982589740898  9.1070612482824878  2.5014870982733495
  9.7538387587942630  9.1116521949958855  7.5430820663283447
  0.2448385759730541  1.3653537753105014  2.5347533079719855
  0.2492068791279623  1.3753923594868849  7.5691416374681655
  0.2283053999146616  6.6122207161062869  2.5202061962707267
  0.2427488750498722  6.6133009971081025  7.5658996094078761
  5.2317634314598545  1.3732271576777135  5.0348476880200659
  5.2381303132116495  1.3711623208975630 10.0764221626771597
  5.1819165009291037  6.6097374614026458  5.0319948798111103
  5.2337023714438260  6.6156696746242201 10.0738848053804499
  4.7583254426519943  3.8628113401896758  0.0365604832927327
  4.7103994300219911  3.8843917595461641  5.0739458458298623
  4.7594947738026327  9.1116674326778977  0.0182047596163316
  4.7623889629492409  9.1261276094511299  5.0581060330702545
  0.2423479575689202  1.2545019519677163  0.0107575791125313
  0.2366293250322592  1.2455604699294054  5.0501535591240394
  0.2521682840956334  6.4950621405362297  0.0019955948478987
  0.2566421304533707  6.4635506392056392  5.0522376218695477
  9.6955655169299568  3.9658711861281430  5.0260997410906958
  9.7460426994160159  3.9952841087917759 10.0610484328083309
  9.7612363779275331  9.2185811709863028  5.0259082353354776
  9.7544338538701059  9.2339998535955417 10.0628617522976480
  4.6989492002908380  4.0286470264129104  2.5806374129675014
  4.7690230740015398  3.9925732695548239  7.6113734164295623
  4.7649338835011603  9.2429405770405069  2.5344930302762831
  4.7611230415139385  9.2309314491093097  7.5770040861328196
  5.2276163350612066  1.2528183564553894  2.5162087543279408
  5.2399210463382566  1.2551619614021747  7.5565026787383145
  5.2257485851314067  6.4924183985448591  2.5144263503385971
  5.2642346934681141  6.4957959598747541  7.5706113511069821
  3.4811745158557850  5.0609501879874248  3.8933817206944963
