Zr  O  H 
 1.0000000000000000
     9.9866648077852407    0.0000000000000000    0.0000000000000000
     0.0000000000000000   10.4780005206540476    0.0000000000000000
     0.0000000000000000    0.0000000000000000   10.0818884199899568
 Zr  O   H  
  32  64   1
Cartesian
  8.8685751384385956  0.1282948517293734  1.3260070673304571
  8.8356978294735136  0.1726867660481979  6.3388904073353087
  8.9059933837929748  5.4648535030298859  1.3221941419937691
  8.8210460583793964  5.4209599585489689  6.3540721472380177
  0.8549740080464425  5.0117681810207069  3.8393719594076434
  1.1559172748520898  5.0560025862022151  8.7908614431068219
  1.1403009130106150 10.3167961326800608  3.7767715041755099
  1.1492909467008021 10.3017680630834949  8.8027260591353240
  6.1578042908494499  5.0725101789794564  3.8185079533200414
  6.1543439070261403  5.0530757092838661  8.8450820035888817
  6.1480389531128559 10.3132626255491715  3.8208054964868068
  6.1470809884374367 10.3016715002136845  8.8435837544485505
  3.8309341042868548  0.1174468205646767  1.3170175690228609
  3.8450068749731674  0.1790315631067563  6.2955088853374690
  3.9554585704630361  5.4998984729213944  1.1381847200878736
  3.8620722980103568  5.4153224592830345  6.3373198738994070
  1.0683639293255232  2.6582404671868156  1.2689651535414941
  1.1493965869370795  2.7906105012055833  6.2883679589585961
  1.1225452983562896  8.1219639122107505  1.2607509436399646
  1.1470916288533288  8.0500825320272718  6.3052316794992578
  8.8472659819644495  2.4154609042517707  3.8295965546031785
  8.8342763323513527  2.4409764407730945  8.8472670420846491
  8.8393265207180463  7.6971490550725150  3.8206854274085371
  8.8418784958382872  7.6877542521391566  8.8526192919021884
  3.8315360406074621  2.4244493620989842  3.7681676338944707
  3.8415629839004151  2.4373030876693922  8.8088061655313048
  3.8608034515161505  7.7484681131007420  3.7418485330368743
  3.8442704731215103  7.6909027699766863  8.8094256058813993
  6.2287457167559479  2.7584782969338226  1.3683797489273410
  6.1337010721172360  2.7981304589993732  6.3250143566676904
  6.1713121413198193  8.0701835913361712  1.2884434828179161
  6.1394499063971706  8.0391349727613175  6.3256859787870177
  8.0208935424550969  1.9808746864861899  0.7770511495737379
  7.9049488999060999  1.9823389450297260  5.7417834211218128
  7.9605584486687953  7.2571066988645159  0.7289246939748952
  7.9073562773450998  7.2242119083310570  5.7370009478084265
  2.0334265124264492  3.2589581622304733  4.3314539534204517
  2.0679992900519761  3.2462650484050197  9.3910841674665342
  2.0681035708925859  8.4775372566529175  4.3572335512586777
  2.0730742289346260  8.4916882797375042  9.3984326156498383
  7.0684879689035292  3.2530808093971766  3.2727836897023526
  7.0670220816166118  3.2505423930494017  8.2512549293821564
  7.0685446954610613  8.4957153040547926  3.2285516745556424
  7.0707172085058341  8.4881529332059404  8.2540264575349926
  2.9002484304953144  1.9520969305313940  1.8625964522498475
  2.9226531764530881  1.9932874228916029  6.8704397140452143
  2.9338918908288298  7.3308375004560649  1.7773161404312925
  2.9232336944666995  7.2261725894520490  6.8713967781161029
  1.9811333660503945  4.4610850407620708  1.5457228160294314
  2.0669509478312764  4.6114508835542205  6.8538725870934272
  2.0827787557063022  9.8941665075944840  1.8559986530724890
  2.0743194252429205  9.8525335430825951  6.8800776039642511
  7.9285661601566284  0.6148883281973980  3.2376263811068418
  7.9170813458413010  0.6300994725529850  8.2621674169308150
  7.9450365350760528  5.8663389843680678  3.2477437840717784
  7.9279555934211068  5.8638897112928667  8.2793373040876173
  2.9120599035246224  0.6229089089425377  4.3728763736767338
  2.9191083819115566  0.6320410912050639  9.3995773128726956
  2.8760344063586567  5.8594806289323396  4.3453346314723396
  2.9413559179942386  5.8602592692228823  9.3774106749234072
  7.1589256102886623  4.6139745196002373  0.8220342081674953
  7.0368274527781276  4.6234391969544228  5.7550696177756100
  7.0771719492768854  9.8729943653037431  0.7003065574349747
  7.0648637126045513  9.8472160906506101  5.7388781229696386
  9.7845773836739536  3.8627589549908570  2.5397754871509401
  9.7540746024751765  3.8676960973835888  7.5577434533608585
  9.7538443878879200  9.1191852388003145  2.5214931941301160
  9.7473996212965961  9.1104143076948123  7.5564328208269878
  0.2015359113429984  1.3079706598674086  2.5891364129672931
  0.2394344531659895  1.3675526154444773  7.5855932186009953
  0.1665635102671683  6.6838951167984950  2.5764061664878759
  0.2361309174621161  6.6186079467820198  7.5968493564305701
  5.2281204628536546  1.3730518511474965  5.0372490086657260
  5.2344409247454786  1.3711457530851954 10.0733783483848089
  5.1832681497776329  6.6102610890759523  5.0252773997960443
  5.2523103748440558  6.6190750867299739 10.0667373066442547
  4.6148878017462591  3.6229305480367664 -1.9118592228510802
  4.7073849353429384  3.8883607085888854  5.0495946081330825
  4.7624433695618231  9.1663181116706607  0.0422226612722006
  4.7551123233701773  9.1229022061958016  5.0631521236412214
  0.1324330945293798  1.1715686974531834  0.0698221412767128
  0.2273868517673740  1.2375483684741955  5.0759701983154839
  0.1041721754526526  6.6667313789490423  0.0097437854077548
  0.2105830906116194  6.5005308376302597  5.0993222271172893
  9.7133875541976185  3.9774887894208009  5.0596678164935334
  9.7489020712224814  3.9895056353789218 10.0738742721940540
  9.7528606557366810  9.2297453730207693  5.0423239795448707
  9.7536369811591790  9.2300645361213736 10.0748699651384168
  4.7372156873801945  4.0119546670171342  2.5379404741761529
  4.7522644864232557  3.9898087006032923  7.5895083413455060
  4.7652094873984900  9.2521794281380565  2.5449104945556771
  4.7549550814994577  9.2279782363151117  7.5814885859207450
  5.2299017491060411  1.2415046577812379  2.5317050048983991
  5.2319371236356460  1.2513374394456871  7.5547454716895226
  5.2599569712883500  6.5169820149908428  2.5209311897235449
  5.2471030785115031  6.4907227235391485  7.5596438082378965
  2.7076838106816870  5.2443183898722650  2.9284430582801981
