Zr  O  H 
 1.0000000000000000
     9.9866648077852407    0.0000000000000000    0.0000000000000000
     0.0000000000000000   10.4780005206540476    0.0000000000000000
     0.0000000000000000    0.0000000000000000   10.0818884199899568
 Zr  O   H  
  32  64   1
Cartesian
  8.8428469721395171  0.1436920480473749  1.2971629334048151
  8.8244072354386436  0.1744523887398308  6.3226836614566242
  8.8970485732039748  5.4498905168759872  1.3254284368493645
  8.8170787952069087  5.4185400893792321  6.3488590993594496
  1.1108620053289724  5.0685835932761876  3.9258350473718626
  1.1615032501351565  5.0505920236357431  8.7735013964896442
  1.1417478806692081 10.2850826010415481  3.7646069659782038
  1.1509418239245937 10.2921120542850026  8.7884254452085475
  6.1594836168762992  5.0661957729130940  3.8327778181421155
  6.1510756406940272  5.0434839953808535  8.8076929339497969
  6.1325760690974800 10.2991178197292399  3.8018417853251432
  6.1372171777904700 10.2964870386342433  8.8291323894920097
  3.8174495701109969  0.1357997553427151  1.2986538714401670
  3.8407340914762202  0.1719958998250765  6.2699650612221625
  3.9073830678652111  5.5774658798141621  1.4893724519097318
  3.8523917516765880  5.4152700419133843  6.2937477040404453
  1.0633395731751978  2.6773719328003631  1.3023757169022365
  1.1421234570729686  2.7771080287488275  6.2886610983198512
  1.1710700619056280  8.0319036346459498  1.2643366862305017
  1.1419044861858345  8.0413307135377270  6.2973431844114351
  8.8458475487266170  2.4332098220992422  3.8060055005774456
  8.8294829369031422  2.4390616062272374  8.8363649560123694
  8.8422013064785645  7.6792245132400625  3.8070402240931491
  8.8418148788671296  7.6807166179710231  8.8611901905964530
  3.8331054438244596  2.4475426045828756  3.7744831683099136
  3.8379682949117950  2.4351661120959682  8.7949469533198972
  3.8395849136467475  7.6935323765324206  3.7695497103063507
  3.8372423604960266  7.6818481238169500  8.7983581006690699
  6.2955598543259494  2.6989941374883282  1.5387938195086048
  6.1374237899895618  2.7807324425358249  6.3186786056818773
  6.1729718757338974  8.0968311802274187  1.2954145438559685
  6.1403949853146669  8.0387948537176328  6.3227324753490857
  8.0334633290391224  1.9554210910335563  0.7729620791607886
  7.9109528241424520  1.9838694116659907  5.7220992560435322
  7.9789842321087709  7.2734530108610702  0.7354520446819480
  7.9066719412277928  7.2243147580651312  5.7287539220575194
  2.0592803801400748  3.2586512822724858  4.3402393391748202
  2.0594480360481633  3.2358763074978598  9.3742474989256159
  2.0639103598015116  8.4895789947904117  4.3603900967217344
  2.0680083662066684  8.4891959581689562  9.3950786462445386
  7.0929240143561527  3.2708239989835444  3.2676335367871596
  7.0639513116699613  3.2425236031127147  8.2422838610032034
  7.0846577283523748  8.5063256733173827  3.2083895622078340
  7.0759175735597930  8.4827794426131273  8.2582089010921997
  2.8624638320457412  2.0694048456410443  1.9156749464087404
  2.9179966166370890  1.9829094662390250  6.8656827596785641
  2.8918928057896078  7.2244827861882834  1.8562552656557820
  2.9165028436036429  7.2271352863391112  6.8902028784036462
  1.9563937598182959  5.0218008028458661  2.0088118443205620
  2.0549157887262042  4.6103701536109956  6.8443733406737346
  2.0688051867259367  9.8323906721458290  1.8325072831953861
  2.0660659953820080  9.8480836697188661  6.8691849130670013
  7.9092584427238126  0.6255258450601322  3.2127611009701154
  7.9105126637002803  0.6313788134934359  8.2499707503932402
  7.9510194762623811  5.8631472061515106  3.2438338246433176
  7.9301396842836693  5.8628101875320482  8.2755235127043676
  2.9142423571390172  0.6368641784287364  4.3445781712319196
  2.9134447465942821  0.6322005582811596  9.4006831202472902
  2.9263039941239075  5.8851763401137394  4.4031282799800024
  2.9433046976686126  5.8573361247900388  9.4009410751335363
  7.2489269691210492  4.6744020759777882  0.9299587862624921
  7.0506301667627289  4.6121228933071192  5.7546228949286693
  7.0596610716406385  9.8739517657040317  0.6806873208826911
  7.0527522796380167  9.8493710950244342  5.7316974926251616
  9.8197209870490560  3.8648223977036262  2.5162670360511314
  9.7481097459331760  3.8606461323986432  7.5510855235178402
  9.7502061420770652  9.1053536606361831  2.5111880144280367
  9.7424324253705326  9.1064204777344528  7.5537582238827641
  0.2243467535246625  1.3582931171848056  2.5420264727647379
  0.2316656059749651  1.3631469263374558  7.5769659189682281
  0.3402183493839500  6.5306318407245154  2.5069095364758760
  0.2324420577067395  6.6136648637389195  7.5970936471472790
  5.2267553606710742  1.3617183067329750  5.0264129121311036
  5.2366606677379064  1.3696905150214524 10.0622542358818876
  5.2308976247984535  6.6127853115641111  5.0308157760675520
  5.2793501574105663  6.6263308217813899 10.0512212535384098
  4.6237077081407207  3.6673629142636397 -1.5035960535876089
  4.7563277694227759  3.8621325705267964  5.0574467532952498
  4.7382567998947813  9.1450136624606202  0.0281347969619763
  4.7470256564718998  9.1063272490128924  5.0511740725576439
  0.1988801805082792  1.2185414870317191  0.0265637692942219
  0.2324306300905383  1.2490300208433616  5.0477183933165177
  0.1784871652261867  6.6331685653958221  0.0151459195706674
  0.2162871856066868  6.4916954196607461  5.0876389329781588
  9.7210305459112085  3.9824089345469185  5.0490049774192247
  9.7566914338123798  3.9847393989502864 10.0743290189576946
  9.7398089825906560  9.2213654863387475  5.0325085598486501
  9.7533066215763817  9.2249785934806123 10.0765825738858918
  4.7344017816188293  4.0211418609622429  2.6003568945028852
  4.7439497834369435  3.9791132696982960  7.5681190022455977
  4.7481159184529682  9.2322256618416016  2.5308408880899891
  4.7519100236258014  9.2245811831216926  7.5723649817554746
  5.2048721069619228  1.2279291723350225  2.5466888649161641
  5.2252297521692590  1.2397978934438536  7.5424642078742199
  5.3126039643272884  6.5417080877158336  2.5444986554992526
  5.2377094968966471  6.4842349696772494  7.5457764039454673
  1.3262050944099171  5.0964248951819444  0.9348317258914624
