Zr  O  H 
 1.0000000000000000
     9.9866648077852407    0.0000000000000000    0.0000000000000000
     0.0000000000000000   10.4780005206540476    0.0000000000000000
     0.0000000000000000    0.0000000000000000   10.0818884199899568
 Zr  O   H  
  32  64   1
Cartesian
  8.8558323483688532  0.1264067895042601  1.3250752945604982
  8.8246469715497273  0.1721474598525959  6.3315446243285169
  8.9136074255664930  5.4650510785206148  1.3399556978831921
  8.8161336606260345  5.4210336962352450  6.3565180754654254
  1.0710215555803717  5.0681692995006928  3.8154506769001126
  1.1574019406688145  5.0516133339989135  8.7731006371067224
  1.1433338155115060 10.3082693867066659  3.7818432589808806
  1.1482213754976511 10.2928128889545931  8.7936747408501752
  6.1617501678175506  5.0727235870203513  3.8309497544695152
  6.1449999563496656  5.0464066774245273  8.8196903260855315
  6.1329299488545104 10.3061093078771489  3.8127755212429770
  6.1348402172056709 10.2970866829046557  8.8329562028390551
  3.8264199864922399  0.1089081892523023  1.3235298465492711
  3.8379543579831057  0.1740600781578104  6.2794794851453233
  3.9166423008607958  5.5204862549984526  1.3766892986362631
  3.8498637223164107  5.4158404597429319  6.3038421465800170
  1.0570030404376856  2.6055882752087127  1.2867525649837002
  1.1428139616388786  2.7883420056178636  6.2771222070195973
  1.1166053892678669  8.1948986544721620  1.2629835135306804
  1.1422819031275273  8.0407752607225174  6.2947806975019134
  8.8517433321291232  2.4271462623195728  3.8245514292689609
  8.8250088506747435  2.4389885487664529  8.8440750574432592
  8.8403048885417270  7.6921120189267143  3.8201295120137866
  8.8354695658727245  7.6824663008332061  8.8615864852525750
  3.8357538320641282  2.4294212209502515  3.7791073400674597
  3.8345293265872318  2.4359092960901374  8.7962558243701174
  3.8399860820855030  7.7106991684264568  3.7499609364660964
  3.8347848902106856  7.6815224787804732  8.7970567000840791
  6.2576916238659601  2.7414238601366034  1.4511497297760745
  6.1335833704054048  2.7871821249995508  6.3226821120411509
  6.1711914316833685  8.0859608383241781  1.2935385419733318
  6.1347287701992954  8.0385364711535079  6.3233042229966161
  8.0365987247001485  1.9735108162636759  0.8022879335595997
  7.9073397945969193  1.9836889183378761  5.7349617636063126
  7.9775322420338961  7.2728833653738745  0.7477847490111698
  7.9036200145954645  7.2258213994529283  5.7366245632826081
  2.0483683717699281  3.2706922134784686  4.3285846583815095
  2.0576229312661267  3.2394240447568117  9.3741860905555345
  2.0628222499830069  8.4753489629770691  4.3530670970119063
  2.0676219706171448  8.4860344103515288  9.3938476159244804
  7.0851211692698426  3.2644682784537649  3.2831944107475612
  7.0594142231515766  3.2447873165943091  8.2462700923608185
  7.0756702503284927  8.5048170414955280  3.2214942513874472
  7.0674985861098660  8.4834023960025107  8.2560483212003319
  2.8913444410573472  1.9540572940343639  1.8890438954464199
  2.9145299085886065  1.9880735904358129  6.8631459848883978
  2.9149722832452780  7.2883036295674932  1.8330371684060967
  2.9149209271400891  7.2215768102303723  6.8701189627408290
  2.2615848261747815  4.3780242378976011  1.9434810432897593
  2.0556160342932510  4.6127780248649737  6.8367665866785261
  2.0899659586456800  9.8983732041692072  1.8573729957217913
  2.0657466683882912  9.8454790921722033  6.8720431775879618
  7.9171926567236106  0.6215304600758826  3.2339539766637602
  7.9077564446092001  0.6297823621799855  8.2558778578857819
  7.9497704467521979  5.8689827824366265  3.2565894687470602
  7.9232232727981513  5.8622767561701679  8.2799154086475752
  2.9080184416888208  0.6308056358849752  4.3616007740546241
  2.9114586930659572  0.6334857212643984  9.3980232731234210
  2.9112098680513041  5.8524777017267953  4.3207371508851899
  2.9395520601413705  5.8551026968106985  9.3859424019271387
  7.1944821882950336  4.6411653233595498  0.8973314522390781
  7.0427403659127412  4.6179722095464539  5.7588358825772268
  7.0681824468738537  9.8806585696707163  0.6951424323052586
  7.0506651520595085  9.8489329564938703  5.7362444647042432
  9.8160883065771110  3.8679069151604191  2.5400141102876677
  9.7462881983619809  3.8638216451027341  7.5593435501359245
  9.7537686843268308  9.1153984334609799  2.5233675896055345
  9.7389692899579501  9.1070504541150417  7.5599673512974395
  0.1958155802089720  1.3084906460382040  2.5863430179781703
  0.2320550124392149  1.3691102940612598  7.5762771404473988
  0.1337089807695922  6.7442396747548798  2.6434772045787769
  0.2319599557035500  6.6146674545602542  7.5920335233724670
  5.2256657650616551  1.3651965007187186  5.0328304015442136
  5.2303222085673502  1.3709566274604104 10.0637331105784025
  5.2045133198541080  6.6130585196544782  5.0267227306297100
  5.2642449228306480  6.6225216174554564 10.0522281342195861
  4.6275361469596445  3.6056937078351523 -2.2287036473826283
  4.7361076501242714  3.8718586365028669  5.0591652378623682
  4.7502889510355324  9.1722849604737782  0.0446877094882012
  4.7436893201690591  9.1087521941612390  5.0534123147402283
  0.1279837972085524  1.1508361000704932  0.0660941034300741
  0.2263185560756630  1.2484485755313450  5.0626026987256791
 -0.0654862101277589  6.8968705729085107 -0.1180751920903728
  0.2249467579270745  6.4808160428256230  5.0892836600101496
  9.7196696489085870  3.9828867028775274  5.0623963565504688
  9.7494223837291205  3.9837391308089729 10.0765708023278791
  9.7404095600612397  9.2294869119771086  5.0434570057070562
  9.7496953668190685  9.2241047648587884 10.0798454007066525
  4.7453414188577936  4.0149129975226874  2.5791573920756576
  4.7404245239507423  3.9843297622174516  7.5725133070882906
  4.7526150745914260  9.2396994719490895  2.5405777680951731
  4.7468684832073276  9.2230856514757207  7.5733752858186376
  5.2187440884840548  1.2330462961492090  2.5410244493109539
  5.2229564992706248  1.2434177091423637  7.5456906752411523
  5.2847313286018593  6.5328905361017817  2.5363979211057708
  5.2348816550868325  6.4848652994518892  7.5463597425356621
  1.4511297859604877  5.3785634820631758  1.2257384256415580
