Zr O2                                   
   1.00000000000000     
     5.1894846975942732    0.0000000000000000   -0.0206394262052893
     0.0000000000000000    5.2437694475432117    0.0000000000000000
    -0.8803837383861647    0.0000000000000000    5.3044071932761900
   Zr   O 
     4     8
Direct
  0.2758534145379277  0.0434919760008658  0.2099950681509931
  0.7241465556853509  0.9565080278751021  0.7900049317727942
  0.7241465556370553  0.5434919722784035  0.2900049317156311
  0.2758534145862233  0.4565080277599730  0.7099950682081562
  0.0655247852814513  0.3272198915292455  0.3492584069896684
  0.9344752221251750  0.6727801382504749  0.6507416228476905
  0.9344752222030149  0.8272198617111487  0.1507415930674876
  0.0655247852301786  0.1727801085858765  0.8492583771332598
  0.4507506006959864  0.7568241338480178  0.4759646010202320
  0.5492494291647073  0.2431758661903584  0.5240353990940870
  0.5492494291164117  0.2568241339247707  0.0240353990369241
  0.4507506007127339  0.7431758661136058  0.9759646008868633
 
  0.00000000E+00  0.00000000E+00  0.00000000E+00
  0.00000000E+00  0.00000000E+00  0.00000000E+00
  0.00000000E+00  0.00000000E+00  0.00000000E+00
  0.00000000E+00  0.00000000E+00  0.00000000E+00
  0.00000000E+00  0.00000000E+00  0.00000000E+00
  0.00000000E+00  0.00000000E+00  0.00000000E+00
  0.00000000E+00  0.00000000E+00  0.00000000E+00
  0.00000000E+00  0.00000000E+00  0.00000000E+00
  0.00000000E+00  0.00000000E+00  0.00000000E+00
  0.00000000E+00  0.00000000E+00  0.00000000E+00
  0.00000000E+00  0.00000000E+00  0.00000000E+00
  0.00000000E+00  0.00000000E+00  0.00000000E+00
