Zr  O  H 
 1.0000000000000000
     9.9866648077852407    0.0000000000000000    0.0000000000000000
     0.0000000000000000   10.4780005206540476    0.0000000000000000
     0.0000000000000000    0.0000000000000000   10.0818884199899568
 Zr  O   H  
  32  64   1
Cartesian
  8.8249020774788569  0.1695863282292792  1.2924891185421621
  8.8241727009044855  0.1758516181136088  6.3261765680741862
  8.8064851866890521  5.4058340303405465  1.2921267334685924
  8.8129852438472120  5.4185567819069460  6.3488149519936750
  1.1090311885801312  5.0647321692186296  3.8540850971182721
  1.1613283004270567  5.0508429500566017  8.7714411682280158
  1.1460071789141439 10.2937133310768498  3.7759250733505358
  1.1513730440950178 10.2925804693761478  8.7914587262432118
  6.1504849747933719  5.0612861715749737  3.8166022550735015
  6.1481352106941829  5.0444788068439692  8.8080870699227791
  6.1357537907515596 10.2999550279243532  3.8066370707748347
  6.1368674322385193 10.2961590348890475  8.8311055849706790
  3.8485944476005209  0.1885901212005563  1.2334805997742664
  3.8420405580473829  0.1745287680039057  6.2736077526393839
  4.0013077066007074  5.4634239436498202  1.2009975547402358
  3.8416229934222832  5.4181772832899675  6.2711504890669927
  1.1113956414412363  2.7231909215784165  1.2068567969197910
  1.1436650848173457  2.7808884671293659  6.2839441932456266
  1.1595271613243066  8.0715387871440907  1.2497922906855887
  1.1456006819145323  8.0413183297897355  6.2954168299587554
  8.8321437575787964  2.4377914613026861  3.8012775225613913
  8.8272071155880099  2.4400699016068343  8.8381472128334959
  8.8379678746107651  7.6771805447309793  3.8070035881623259
  8.8394263814496856  7.6814047136814549  8.8610272518597810
  3.8344481953379130  2.4420929738910617  3.7618650426981017
  3.8376494996449129  2.4376226922171980  8.7937324790171196
  3.8317365982917080  7.6785404166944948  3.7507431604683905
  3.8353508339573774  7.6809457074725236  8.7936329802351452
  6.1462403872677154  2.7882503678975428  1.2813912104397134
  6.1333307052519110  2.7862116435223090  6.3145779953828702
  6.1658691730804271  8.0692914861044027  1.2803052419621812
  6.1357644992708424  8.0352386197301939  6.3191369458140567
  7.9243217166035986  2.0009058589944799  0.7006076363029649
  7.9069417896485295  1.9863041898976330  5.7226273136926249
  7.9468759250956271  7.2346139218239074  0.7146976771943302
  7.9027405267638198  7.2228662743563099  5.7282680228699432
  2.0564879736093893  3.2575922676130520  4.3269317793337221
  2.0602917461570955  3.2379963256215039  9.3741330422156448
  2.0644265291662052  8.4817904056604938  4.3513385813858845
  2.0688916328687639  8.4889061654185944  9.3944948166164206
  7.0653336680413226  3.2584384597563760  3.2052657331432117
  7.0617706060152594  3.2447182939890946  8.2415987321901074
  7.0796041509660359  8.4995572068651750  3.2067407382410140
  7.0734063942609939  8.4822087643889237  8.2576749680093968
  2.9131975679560842  2.0450988844193105  1.8162843908888222
  2.9181649952693989  1.9871380244069727  6.8640198862779664
  2.9369196044305501  7.1999459590107975  1.8024660847057907
  2.9165410787255199  7.2238898714199928  6.8781224313553357
  2.0598933089696962  4.6892437126136759  1.7500437072470232
  2.0536627987280727  4.6133711284666914  6.8342989242853447
  2.0807732436844986  9.8610271994032299  1.8415144506801189
  2.0680749618740535  9.8475807547791252  6.8711043722891585
  7.9034105845191815  0.6363458039796802  3.2071905507418954
  7.9094220265949629  0.6323860967990073  8.2525554973639323
  7.9392164442575615  5.8540563102416918  3.2249801140470717
  7.9268389210770724  5.8633257102067695  8.2759335192804571
  2.9153531982243011  0.6365192539193331  4.3474730843303613
  2.9137524721752044  0.6332750770405807  9.4000539691149516
  2.9104779171121304  5.8678511364887198  4.3401482300261582
  2.9424583109728886  5.8576241840257905  9.3941649832234475
  7.0440264235798207  4.6180287755640848  0.6905288474029404
  7.0450132047114780  4.6143735270167223  5.7481013359118434
  7.0620092021375216  9.8614775351102786  0.6835818321583962
  7.0526563273081564  9.8475322106713126  5.7349662284727634
  9.7980762146557474  3.8682619204538349  2.5115149823398260
  9.7463084126000705  3.8623140380508527  7.5534024343394073
  9.7482326613127199  9.1047648751897476  2.5143645675137063
  9.7418744633415351  9.1068332125199341  7.5559416834252229
  0.2309348814993796  1.3518705134556002  2.5376321041183560
  0.2338478236109751  1.3663347207674019  7.5796085815525149
  0.2829231610000060  6.5935972108459779  2.5534777015071999
  0.2350181474886410  6.6151851217921864  7.5979721116105834
  5.2261660074066958  1.3663478780509259  5.0226133287553267
  5.2352849681625369  1.3709434005878995 10.0629098015948752
  5.2181751786062147  6.6097406276420418  5.0186589611332364
  5.2740421671657920  6.6254360551814795 10.0514019551539935
  4.7650347454666102  3.8657830192465923 10.0816337583615994
  4.7505894392590662  3.8646948098970211  5.0454482125908768
  4.7484935884495476  9.1126574516266690  0.0143021806886292
  4.7441312242771030  9.1026082575828866  5.0486917820042834
  0.2283915428518768  1.2350661205344742  0.0140139936720717
  0.2322162199063999  1.2470789091764287  5.0565275728165746
  0.2943774243029781  6.4493534680221805  0.0601573929687288
  0.2243131478964327  6.4854281697667524  5.0908863049371513
  9.7157722223559446  3.9821991548282023  5.0501281248515486
  9.7542486787183851  3.9855831983073218 10.0758278878446710
  9.7400849925812274  9.2228274326825197  5.0360084626662873
  9.7523892149709663  9.2251756329445165 10.0776068226880806
  4.7366833231138843  4.0144525211744764  2.5317689268377275
  4.7411722128185438  3.9829378399265383  7.5634180930695161
  4.7566994324955152  9.2324485536498990  2.5296979032596636
  4.7509953317559006  9.2235014988434916  7.5721896907524711
  5.2187545958334800  1.2594240687848743  2.5054339954533238
  5.2255663722437165  1.2440086272190922  7.5423944420737481
  5.2844304211882065  6.5121275123483491  2.5056451887401057
  5.2339595933392200  6.4827192724572065  7.5405807737769441
  1.5121472434207779  5.4170408308521090  1.3729106563732665
